NAME : local_8
TYPE : ATSP
DIMENSION : 7
EDGE_WEIGHT_TYPE : EXPLICIT
EDGE_WEIGHT_FORMAT : FULL_MATRIX
EDGE_WEIGHT_SECTION
0 1053 10000000 539 10000000 10000000 826 
0 0 455 10000000 577 389 727 
0 455 0 10000000 182 676 10000000 
0 10000000 10000000 0 10000000 10000000 1115 
0 577 182 10000000 0 700 10000000 
0 389 676 10000000 700 0 554 
0 10000000 10000000 10000000 10000000 10000000 0 
EOF